unsat
(error "line 973 column 17: model is not available")
(error "line 974 column 17: model is not available")
(error "line 975 column 18: model is not available")
(error "line 976 column 18: model is not available")
(error "line 977 column 18: model is not available")
(error "line 978 column 18: model is not available")
(error "line 979 column 18: model is not available")
(error "line 980 column 18: model is not available")
(error "line 981 column 18: model is not available")
(error "line 982 column 17: model is not available")
(error "line 983 column 17: model is not available")
(error "line 984 column 17: model is not available")
(error "line 985 column 17: model is not available")
(error "line 986 column 17: model is not available")
(error "line 987 column 17: model is not available")
(error "line 988 column 17: model is not available")
(error "line 989 column 17: model is not available")
(error "line 990 column 38: model is not available")
(error "line 991 column 45: model is not available")
(error "line 992 column 38: model is not available")
(error "line 993 column 45: model is not available")
(error "line 994 column 46: model is not available")
(error "line 995 column 53: model is not available")
(error "line 996 column 40: model is not available")
(error "line 997 column 47: model is not available")
(error "line 998 column 38: model is not available")
(error "line 999 column 45: model is not available")
(error "line 1000 column 38: model is not available")
(error "line 1001 column 45: model is not available")
(error "line 1002 column 41: model is not available")
(error "line 1003 column 48: model is not available")
(error "line 1004 column 41: model is not available")
(error "line 1005 column 48: model is not available")
(error "line 1006 column 41: model is not available")
(error "line 1007 column 48: model is not available")
(error "line 1008 column 41: model is not available")
(error "line 1009 column 41: model is not available")
(error "line 1010 column 48: model is not available")
(error "line 1011 column 37: model is not available")
(error "line 1012 column 44: model is not available")
(error "line 1013 column 42: model is not available")
(error "line 1014 column 42: model is not available")
(error "line 1015 column 42: model is not available")
(error "line 1016 column 38: model is not available")
(error "line 1017 column 38: model is not available")
(error "line 1018 column 38: model is not available")
(error "line 1019 column 38: model is not available")
(error "line 1020 column 38: model is not available")
(error "line 1021 column 41: model is not available")
(error "line 1022 column 48: model is not available")
(error "line 1023 column 22: model is not available")
(error "line 1024 column 20: model is not available")
(error "line 1025 column 22: model is not available")
(error "line 1026 column 22: model is not available")
(error "line 1027 column 29: model is not available")
(error "line 1028 column 38: model is not available")
(error "line 1029 column 18: model is not available")
(error "line 1030 column 25: model is not available")
(error "line 1031 column 19: model is not available")
(error "line 1032 column 26: model is not available")
(error "line 1033 column 19: model is not available")
(error "line 1034 column 19: model is not available")
(error "line 1035 column 26: model is not available")
(error "line 1036 column 19: model is not available")
(error "line 1037 column 18: model is not available")
(error "line 1038 column 25: model is not available")
(error "line 1039 column 18: model is not available")
(error "line 1040 column 18: model is not available")
(error "line 1041 column 25: model is not available")
(error "line 1042 column 18: model is not available")
(error "line 1043 column 18: model is not available")
(error "line 1044 column 25: model is not available")
(error "line 1045 column 18: model is not available")
(error "line 1046 column 25: model is not available")
(error "line 1047 column 18: model is not available")
(error "line 1048 column 18: model is not available")
(error "line 1049 column 25: model is not available")
(error "line 1050 column 18: model is not available")
(error "line 1051 column 25: model is not available")
(error "line 1052 column 19: model is not available")
(error "line 1053 column 26: model is not available")
(error "line 1054 column 19: model is not available")
(error "line 1055 column 26: model is not available")
(error "line 1056 column 19: model is not available")
(error "line 1057 column 19: model is not available")
(error "line 1058 column 26: model is not available")
(error "line 1059 column 18: model is not available")
(error "line 1060 column 25: model is not available")
(error "line 1061 column 18: model is not available")
(error "line 1062 column 18: model is not available")
(error "line 1063 column 25: model is not available")
(error "line 1064 column 18: model is not available")
(error "line 1065 column 18: model is not available")
(error "line 1066 column 25: model is not available")
(error "line 1067 column 18: model is not available")
(error "line 1068 column 18: model is not available")
(error "line 1069 column 25: model is not available")
(error "line 1070 column 18: model is not available")
(error "line 1071 column 36: model is not available")
(error "line 1072 column 36: model is not available")
(error "line 1073 column 36: model is not available")
(error "line 1074 column 35: model is not available")
(error "line 1075 column 35: model is not available")
(error "line 1076 column 35: model is not available")
(error "line 1077 column 35: model is not available")
(error "line 1078 column 31: model is not available")
(error "line 1079 column 33: model is not available")
(error "line 1080 column 40: model is not available")
(error "line 1081 column 33: model is not available")
(error "line 1082 column 40: model is not available")
(error "line 1083 column 31: model is not available")
(error "line 1084 column 33: model is not available")
(error "line 1085 column 40: model is not available")
(error "line 1086 column 33: model is not available")
(error "line 1087 column 40: model is not available")
(error "line 1088 column 31: model is not available")
(error "line 1089 column 31: model is not available")
(error "line 1090 column 52: model is not available")
(error "line 1091 column 51: model is not available")
(error "line 1092 column 51: model is not available")
(error "line 1093 column 51: model is not available")
(error "line 1094 column 51: model is not available")
(error "line 1095 column 53: model is not available")
(error "line 1096 column 52: model is not available")
(error "line 1097 column 52: model is not available")
(error "line 1098 column 52: model is not available")
(error "line 1099 column 51: model is not available")
(error "line 1100 column 51: model is not available")
(error "line 1101 column 50: model is not available")
(error "line 1102 column 52: model is not available")
(error "line 1103 column 51: model is not available")
(error "line 1104 column 51: model is not available")
(error "line 1105 column 50: model is not available")
(error "line 1106 column 50: model is not available")
(error "line 1107 column 50: model is not available")
(error "line 1108 column 50: model is not available")
(error "line 1109 column 51: model is not available")
(error "line 1110 column 52: model is not available")
(error "line 1111 column 51: model is not available")
(error "line 1112 column 51: model is not available")
(error "line 1113 column 51: model is not available")
(error "line 1114 column 52: model is not available")
(error "line 1115 column 51: model is not available")
(error "line 1116 column 56: model is not available")
(error "line 1117 column 56: model is not available")
(error "line 1118 column 55: model is not available")
(error "line 1119 column 55: model is not available")
(error "line 1120 column 46: model is not available")
(error "line 1121 column 46: model is not available")
(error "line 1122 column 46: model is not available")
(error "line 1123 column 46: model is not available")
(error "line 1124 column 54: model is not available")
(error "line 1125 column 54: model is not available")
(error "line 1126 column 54: model is not available")
(error "line 1127 column 54: model is not available")
(error "line 1128 column 54: model is not available")
(error "line 1129 column 54: model is not available")
(error "line 1130 column 40: model is not available")
(error "line 1131 column 40: model is not available")
(error "line 1132 column 40: model is not available")
(error "line 1133 column 40: model is not available")
(error "line 1134 column 41: model is not available")
(error "line 1135 column 41: model is not available")
(error "line 1136 column 41: model is not available")
(error "line 1137 column 41: model is not available")
(error "line 1138 column 50: model is not available")
(error "line 1139 column 50: model is not available")
(error "line 1140 column 50: model is not available")
(error "line 1141 column 50: model is not available")
(error "line 1142 column 43: model is not available")
(error "line 1143 column 43: model is not available")
(error "line 1144 column 43: model is not available")
(error "line 1145 column 43: model is not available")
(error "line 1146 column 26: model is not available")
(error "line 1147 column 27: model is not available")
(error "line 1148 column 34: model is not available")
(error "line 1149 column 34: model is not available")
(error "line 1150 column 30: model is not available")
(error "line 1151 column 30: model is not available")
(error "line 1152 column 29: model is not available")
(error "line 1153 column 29: model is not available")
(error "line 1154 column 29: model is not available")
(error "line 1155 column 29: model is not available")
(error "line 1156 column 29: model is not available")
(error "line 1157 column 28: model is not available")
(error "line 1158 column 34: model is not available")
(error "line 1159 column 34: model is not available")
(error "line 1160 column 29: model is not available")
(error "line 1161 column 29: model is not available")
(error "line 1162 column 29: model is not available")
(error "line 1163 column 29: model is not available")
(error "line 1164 column 29: model is not available")
(error "line 1165 column 28: model is not available")
(error "line 1167 column 10: model is not available")
(:added-eqs                      873
 :arith-bound-propagations-cheap 167
 :arith-bound-propagations-lp    47
 :arith-conflicts                1
 :arith-lower                    115
 :arith-make-feasible            101
 :arith-max-columns              58
 :arith-max-rows                 37
 :arith-propagations             167
 :arith-upper                    100
 :binary-propagations            7567
 :bv-bit2core                    6951
 :bv-diseqs                      2
 :bv-dynamic-diseqs              18
 :conflicts                      73
 :decisions                      217
 :del-clause                     349
 :eliminated-applications        18
 :eliminated-vars                15
 :max-memory                     3.93
 :memory                         3.04
 :minimized-lits                 631
 :mk-bool-var                    1254
 :mk-clause                      1648
 :num-allocs                     965479
 :num-checks                     1
 :propagations                   14001
 :rlimit-count                   64360
 :time                           0.01
 :total-time                     0.02)

real	0m0.022s
user	0m0.018s
sys	0m0.003s
State: RE Run_time: 0.0234832763671875